benchmarks/VRPTW/TSPTW/ins/n100w40.001.txt


!! n100w40.001    36.29 851


CUST NO.   XCOORD.   YCOORD.    DEMAND   READY TIME   DUE DATE   SERVICE TIME


    1      28.00      43.00       0.00       0.00     862.00       0.00
    2      48.00      39.00       0.00     231.00     274.00       0.00
    3      15.00      29.00       0.00       0.00      37.00       0.00
    4       8.00       7.00       0.00      60.00     125.00       0.00
    5      25.00      11.00       0.00     135.00     157.00       0.00
    6       4.00       1.00       0.00      80.00     118.00       0.00
    7      14.00      39.00       0.00     292.00     337.00       0.00
    8       9.00      18.00       0.00      53.00      67.00       0.00
    9      36.00      24.00       0.00     457.00     515.00       0.00
   10      23.00      50.00       0.00     356.00     418.00       0.00
   11      44.00      29.00       0.00     449.00     482.00       0.00
   12      30.00      31.00       0.00     211.00     244.00       0.00
   13      24.00       9.00       0.00     162.00     191.00       0.00
   14      36.00      35.00       0.00     216.00     263.00       0.00
   15      44.00      44.00       0.00     226.00     266.00       0.00
   16      46.00       2.00       0.00     519.00     562.00       0.00
   17      26.00      39.00       0.00       0.00      33.00       0.00
   18       1.00       5.00       0.00      72.00     117.00       0.00
   19      30.00      27.00       0.00     205.00     231.00       0.00
   20      17.00      26.00       0.00       0.00      48.00       0.00
   21      14.00      36.00       0.00     317.00     342.00       0.00
   22      14.00      12.00       0.00      39.00     102.00       0.00
   23      47.00      34.00       0.00     246.00     288.00       0.00
   24      18.00      25.00       0.00     153.00     187.00       0.00
   25      48.00      37.00       0.00     628.00     664.00       0.00
   26      19.00      47.00       0.00     371.00     395.00       0.00
   27      23.00       8.00       0.00     127.00     176.00       0.00
   28      27.00      21.00       0.00     177.00     225.00       0.00
   29      24.00      32.00       0.00       4.00      27.00       0.00
   30       7.00      35.00       0.00     325.00     342.00       0.00
   31       7.00      32.00       0.00      38.00      88.00       0.00
   32      39.00      15.00       0.00     503.00     520.00       0.00
   33       9.00      27.00       0.00      20.00      51.00       0.00
   34      14.00       6.00       0.00      91.00     123.00       0.00
   35      12.00      40.00       0.00     407.00     427.00       0.00
   36      42.00      40.00       0.00     211.00     249.00       0.00
   37      32.00      10.00       0.00     508.00     533.00       0.00
   38       8.00      29.00       0.00       4.00      45.00       0.00
   39      43.00       6.00       0.00     514.00     563.00       0.00
   40      19.00      31.00       0.00      11.00      19.00       0.00
   41      10.00       5.00       0.00      65.00     107.00       0.00
   42      19.00      20.00       0.00     135.00     162.00       0.00
   43      21.00      43.00       0.00     385.00     400.00       0.00
   44      10.00      17.00       0.00     665.00     700.00       0.00
   45      15.00      27.00       0.00       9.00      34.00       0.00
   46      21.00      13.00       0.00     132.00     171.00       0.00
   47       4.00      31.00       0.00      32.00      55.00       0.00
   48       5.00      29.00       0.00      41.00      55.00       0.00
   49      45.00      19.00       0.00     269.00     305.00       0.00
   50       0.00       5.00       0.00     796.00     815.00       0.00
   51      48.00       5.00       0.00     537.00     564.00       0.00
   52      41.00      22.00       0.00     270.00     319.00       0.00
   53      32.00       1.00       0.00     488.00     553.00       0.00
   54      15.00      17.00       0.00      59.00      78.00       0.00
   55      13.00      14.00       0.00     167.00     209.00       0.00
   56      31.00      29.00       0.00     280.00     329.00       0.00
   57      43.00      38.00       0.00     228.00     296.00       0.00
   58       8.00      23.00       0.00      31.00      81.00       0.00
   59      15.00       4.00       0.00      67.00      92.00       0.00
   60      49.00      21.00       0.00     263.00     319.00       0.00
   61      28.00      32.00       0.00     213.00     251.00       0.00
   62       6.00       1.00       0.00      87.00     142.00       0.00
   63      14.00       9.00       0.00      57.00      90.00       0.00
   64       3.00      39.00       0.00     308.00     366.00       0.00
   65      11.00      23.00       0.00     148.00     204.00       0.00
   66      17.00      50.00       0.00     354.00     391.00       0.00
   67       7.00      25.00       0.00       5.00      46.00       0.00
   68      47.00       1.00       0.00     529.00     583.00       0.00
   69      23.00      20.00       0.00     568.00     595.00       0.00
   70      12.00      24.00       0.00      15.00      40.00       0.00
   71       8.00      37.00       0.00     336.00     371.00       0.00
   72      49.00      18.00       0.00     274.00     285.00       0.00
   73      30.00      41.00       0.00     394.00     462.00       0.00
   74      19.00      42.00       0.00     584.00     606.00       0.00
   75      20.00      29.00       0.00     309.00     325.00       0.00
   76      39.00      37.00       0.00     224.00     253.00       0.00
   77       5.00      30.00       0.00      31.00      57.00       0.00
   78      39.00      10.00       0.00     484.00     545.00       0.00
   79       5.00       3.00       0.00     104.00     143.00       0.00
   80      12.00      47.00       0.00     356.00     390.00       0.00
   81      46.00      38.00       0.00     221.00     270.00       0.00
   82      21.00      12.00       0.00     127.00     151.00       0.00
   83      48.00      22.00       0.00     459.00     519.00       0.00
   84      16.00      10.00       0.00     125.00     130.00       0.00
   85      28.00      19.00       0.00     185.00     222.00       0.00
   86      27.00      24.00       0.00     172.00     204.00       0.00
   87      11.00      19.00       0.00      47.00      95.00       0.00
   88      42.00      50.00       0.00     440.00     452.00       0.00
   89      15.00       7.00       0.00      65.00     103.00       0.00
   90      34.00      41.00       0.00     231.00     239.00       0.00
   91      35.00      24.00       0.00     296.00     306.00       0.00
   92      48.00      26.00       0.00     270.00     287.00       0.00
   93       0.00      46.00       0.00     321.00     358.00       0.00
   94      44.00      31.00       0.00     249.00     291.00       0.00
   95      29.00      16.00       0.00     164.00     203.00       0.00
   96      38.00       8.00       0.00     555.00     565.00       0.00
   97      48.00       5.00       0.00     716.00     768.00       0.00
   98      20.00      48.00       0.00     379.00     436.00       0.00
   99      12.00      35.00       0.00     297.00     344.00       0.00
  100      27.00      35.00       0.00       0.00      16.00       0.00
  101      31.00      46.00       0.00     672.00     738.00       0.00
  999       0.00       0.00       0.00       0.00       0.00       0.00
